/* Seervada Park (mynd 9.6 bls. 389 H&L). */

data; 

param n := 7;
param s := 7;
param t := 6;

/* O,A,B,C,D,E,T == (1,2,3,4,5,6,7) */
param : E :   c :=
       7 1    5
       7 2    10
       1 2    1
       1 3    4
       2 4    5
       2 5    2
       4 5    8
       4 6    3
       3 2    7
       3 5    6
       5 6    10;
end;
